c ind 1 2 3 4 5 6 7 8 9 10 11 12 13 14 15 16 17 18 19 20 0
p cnf 148 222               
-5 1 -21 0
21 -25 0
-6 2 -22 0
22 -25 0
-7 3 -23 0
23 -25 0
-8 4 -24 0
24 -25 0
-1 25 -26 0
26 -45 0
-9 1 -27 0
27 -31 0
-10 2 -28 0
28 -31 0
-11 3 -29 0
29 -31 0
-12 4 -30 0
30 -31 0
-2 31 -32 0
32 -45 0
-13 1 -33 0
33 -37 0
-14 2 -34 0
34 -37 0
-15 3 -35 0
35 -37 0
-16 4 -36 0
36 -37 0
-3 37 -38 0
38 -45 0
-17 1 -39 0
39 -43 0
-18 2 -40 0
40 -43 0
-19 3 -41 0
41 -43 0
-20 4 -42 0
42 -43 0
-4 43 -44 0
44 -45 0
45 -68 0
-5 46 0
-6 46 0
-7 46 0
-8 46 0
-46 1 -50 0
50 -54 0
-9 47 0
-10 47 0
-11 47 0
-12 47 0
-47 2 -51 0
51 -54 0
-13 48 0
-14 48 0
-15 48 0
-16 48 0
-48 3 -52 0
52 -54 0
-17 49 0
-18 49 0
-19 49 0
-20 49 0
-49 4 -53 0
53 -54 0
54 -68 0
-6 9 -55 0
55 -67 0
-7 13 -56 0
56 -67 0
-8 17 -57 0
57 -67 0
-9 6 -58 0
58 -67 0
-11 14 -59 0
59 -67 0
-12 18 -60 0
60 -67 0
-13 7 -61 0
61 -67 0
-14 11 -62 0
62 -67 0
-16 19 -63 0
63 -67 0
-17 8 -64 0
64 -67 0
-18 12 -65 0
65 -67 0
-19 16 -66 0
66 -67 0
67 -68 0
-1 2 -69 0
69 -94 0
-1 -2 70 0
1 2 70 0
-2 2 70 0
-5 10 -71 0
-70 71 -72 0
72 -94 0
-5 -10 73 0
5 10 73 0
-10 10 73 0
-70 -73 74 0
-74 55 -75 0
75 -94 0
-6 -9 76 0
6 9 76 0
-9 9 76 0
-74 -76 77 0
-7 11 -78 0
-77 78 -79 0
79 -94 0
-7 -11 80 0
7 11 80 0
-11 11 80 0
-77 -80 81 0
-8 12 -82 0
-81 82 -83 0
83 -94 0
-8 -12 84 0
8 12 84 0
-12 12 84 0
-81 -84 85 0
-13 14 -86 0
-85 86 -87 0
87 -94 0
-13 -14 88 0
13 14 88 0
-14 14 88 0
-85 -88 89 0
-17 18 -90 0
-89 90 -91 0
91 -94 0
94 -147 0
-2 3 -95 0
95 -120 0
-2 -3 96 0
2 3 96 0
-3 3 96 0
-6 7 -97 0
-96 97 -98 0
98 -120 0
-6 -7 99 0
6 7 99 0
-7 7 99 0
-96 -99 100 0
-9 13 -101 0
-100 101 -102 0
102 -120 0
-9 -13 103 0
9 13 103 0
-13 13 103 0
-100 -103 104 0
-10 15 -105 0
-104 105 -106 0
106 -120 0
-10 -15 107 0
10 15 107 0
-15 15 107 0
-104 -107 108 0
-108 59 -109 0
109 -120 0
-11 -14 110 0
11 14 110 0
-14 14 110 0
-108 -110 111 0
-12 16 -112 0
-111 112 -113 0
113 -120 0
-12 -16 114 0
12 16 114 0
-16 16 114 0
-111 -114 115 0
-18 19 -116 0
-115 116 -117 0
117 -120 0
120 -147 0
-3 4 -121 0
121 -146 0
-3 -4 122 0
3 4 122 0
-4 4 122 0
-7 8 -123 0
-122 123 -124 0
124 -146 0
-7 -8 125 0
7 8 125 0
-8 8 125 0
-122 -125 126 0
-11 12 -127 0
-126 127 -128 0
128 -146 0
-11 -12 129 0
11 12 129 0
-12 12 129 0
-126 -129 130 0
-13 17 -131 0
-130 131 -132 0
132 -146 0
-13 -17 133 0
13 17 133 0
-17 17 133 0
-130 -133 134 0
-14 18 -135 0
-134 135 -136 0
136 -146 0
-14 -18 137 0
14 18 137 0
-18 18 137 0
-134 -137 138 0
-15 20 -139 0
-138 139 -140 0
140 -146 0
-15 -20 141 0
15 20 141 0
-20 20 141 0
-138 -141 142 0
-142 63 -143 0
143 -146 0
146 -147 0
68 0
147 0
